p edge 60 420
e 1 7
e 1 13
e 1 17
e 1 26
e 1 41
e 1 46
e 1 49
e 2 5
e 2 5
e 2 20
e 2 22
e 2 23
e 2 34
e 2 59
e 3 2
e 3 16
e 3 25
e 3 43
e 3 56
e 3 56
e 3 59
e 4 6
e 4 14
e 4 18
e 4 19
e 4 29
e 4 48
e 4 59
e 5 2
e 5 15
e 5 17
e 5 27
e 5 35
e 5 35
e 5 56
e 6 8
e 6 9
e 6 11
e 6 35
e 6 39
e 6 49
e 6 53
e 7 3
e 7 8
e 7 22
e 7 23
e 7 29
e 7 53
e 7 60
e 8 5
e 8 6
e 8 9
e 8 18
e 8 37
e 8 50
e 8 58
e 9 2
e 9 5
e 9 8
e 9 12
e 9 27
e 9 32
e 9 56
e 10 3
e 10 3
e 10 14
e 10 24
e 10 29
e 10 51
e 10 58
e 11 24
e 11 32
e 11 36
e 11 36
e 11 37
e 11 43
e 11 52
e 12 7
e 12 25
e 12 27
e 12 27
e 12 27
e 12 54
e 12 58
e 13 1
e 13 27
e 13 27
e 13 29
e 13 32
e 13 34
e 13 58
e 14 7
e 14 26
e 14 34
e 14 37
e 14 39
e 14 44
e 14 46
e 15 14
e 15 19
e 15 28
e 15 30
e 15 49
e 15 54
e 15 59
e 16 4
e 16 8
e 16 15
e 16 22
e 16 23
e 16 41
e 16 57
e 17 2
e 17 12
e 17 13
e 17 24
e 17 24
e 17 35
e 17 41
e 18 8
e 18 27
e 18 30
e 18 41
e 18 51
e 18 53
e 18 59
e 19 5
e 19 11
e 19 32
e 19 44
e 19 49
e 19 55
e 19 59
e 20 14
e 20 16
e 20 22
e 20 26
e 20 43
e 20 48
e 20 49
e 21 10
e 21 16
e 21 34
e 21 36
e 21 44
e 21 46
e 21 55
e 22 5
e 22 12
e 22 19
e 22 19
e 22 38
e 22 48
e 22 49
e 23 9
e 23 9
e 23 11
e 23 13
e 23 16
e 23 31
e 23 52
e 24 4
e 24 8
e 24 11
e 24 13
e 24 28
e 24 29
e 24 29
e 25 4
e 25 10
e 25 17
e 25 28
e 25 42
e 25 44
e 25 54
e 26 5
e 26 6
e 26 12
e 26 16
e 26 16
e 26 28
e 26 29
e 27 16
e 27 24
e 27 25
e 27 32
e 27 34
e 27 34
e 27 55
e 28 9
e 28 31
e 28 40
e 28 47
e 28 49
e 28 51
e 28 60
e 29 7
e 29 38
e 29 43
e 29 52
e 29 54
e 29 57
e 29 60
e 30 1
e 30 3
e 30 16
e 30 27
e 30 31
e 30 37
e 30 60
e 31 20
e 31 21
e 31 24
e 31 34
e 31 45
e 31 45
e 31 52
e 32 5
e 32 12
e 32 19
e 32 31
e 32 44
e 32 45
e 32 53
e 33 6
e 33 29
e 33 36
e 33 43
e 33 43
e 33 49
e 33 54
e 34 2
e 34 2
e 34 10
e 34 13
e 34 19
e 34 43
e 34 48
e 35 2
e 35 9
e 35 22
e 35 28
e 35 29
e 35 33
e 35 41
e 36 2
e 36 13
e 36 18
e 36 27
e 36 31
e 36 48
e 36 59
e 37 10
e 37 11
e 37 12
e 37 19
e 37 44
e 37 45
e 37 56
e 38 7
e 38 9
e 38 10
e 38 23
e 38 29
e 38 41
e 38 47
e 39 3
e 39 4
e 39 11
e 39 12
e 39 14
e 39 33
e 39 43
e 40 5
e 40 8
e 40 18
e 40 25
e 40 31
e 40 35
e 40 38
e 41 9
e 41 18
e 41 23
e 41 26
e 41 34
e 41 35
e 41 46
e 42 3
e 42 4
e 42 21
e 42 22
e 42 30
e 42 41
e 42 44
e 43 1
e 43 16
e 43 32
e 43 33
e 43 34
e 43 58
e 43 60
e 44 4
e 44 13
e 44 15
e 44 34
e 44 37
e 44 38
e 44 60
e 45 20
e 45 20
e 45 30
e 45 31
e 45 31
e 45 53
e 45 56
e 46 1
e 46 1
e 46 5
e 46 18
e 46 31
e 46 40
e 46 55
e 47 3
e 47 6
e 47 13
e 47 22
e 47 35
e 47 35
e 47 53
e 48 2
e 48 19
e 48 37
e 48 46
e 48 55
e 48 57
e 48 59
e 49 1
e 49 6
e 49 9
e 49 20
e 49 28
e 49 43
e 49 50
e 50 23
e 50 36
e 50 40
e 50 42
e 50 44
e 50 52
e 50 54
e 51 7
e 51 14
e 51 19
e 51 30
e 51 31
e 51 54
e 51 56
e 52 4
e 52 10
e 52 25
e 52 27
e 52 29
e 52 30
e 52 60
e 53 1
e 53 15
e 53 24
e 53 36
e 53 39
e 53 42
e 53 57
e 54 22
e 54 23
e 54 29
e 54 43
e 54 50
e 54 51
e 54 58
e 55 6
e 55 19
e 55 29
e 55 29
e 55 33
e 55 35
e 55 44
e 56 12
e 56 16
e 56 26
e 56 35
e 56 40
e 56 50
e 56 52
e 57 4
e 57 6
e 57 12
e 57 12
e 57 31
e 57 36
e 57 42
e 58 2
e 58 7
e 58 8
e 58 42
e 58 45
e 58 52
e 58 54
e 59 5
e 59 13
e 59 15
e 59 23
e 59 27
e 59 29
e 59 55
e 60 8
e 60 21
e 60 35
e 60 39
e 60 50
e 60 52
e 60 57
